10 - 10 - 3686.53
10 - 20 - 3270.17
10 - 30 - 3082.72
40 - 10 - 121
40 - 20 - 142
40 - 30 - 169.5
50 - 10 - 118565
50 - 20 - 122734
50 - 30 - 123690
40 - 10 - 135.5
40 - 20 - 117
40 - 30 - 99.5
50 - 10 - 107179
50 - 20 - 104449
50 - 30 - 109666
40 - 10 - 490.5
40 - 20 - 484.5
40 - 30 - 426.5
40 - 10 - 278
40 - 20 - 399.5
40 - 30 - 277.5
50 - 10 - 481730
50 - 20 - 453298
50 - 30 - 443386
40 - 10 - 276.5
40 - 20 - 352
40 - 30 - 284.5
50 - 10 - 459258
50 - 20 - 443943
50 - 30 - 444379
